paratsp/TSP/hoto12.tsp
NAME : hoto12.tsp
COMMENT : GA auf Parsytec-GC (Totzke)
TYPE : TSP
DIMENSION : 12
EDGE_WEIGHT_TYPE : HOTO
NODE_COORD_SECTION
:Deutschland
1	14449	13822	Berlin
2	11509	12808	Dortmund
3	14751	12631	Dresden
4	12165	11676	Frankfurt
5	12703	14465	Hamburg
6	11240	12322	Koeln
7	14031	12808	Leipzig
8	13601	13439	Magdeburg
9	13808	10135	Muenchen
10	13704	15055	Rostock
11	13653	13346	Schoenebeck
12	12472	10594	Stuttgart
EOF
